\ENCODING=ISO-8859-1
\Problem name: IloCplex

Minimize
 obj1: 0 x1 + 0 x10 + 0 x19 + 0 x28 + 0 x37 + 0 x46 + 0 x55 + 0 x63 + 0 x64
       + 0 x65 + 0 x74 + 0 x83 + 0 x92 + 0 x101 + 0 x110 + 0 x119 + 0 x127
       + 0 x128 + 0 x135 + 0 x136 + 0 x143 + 0 x144 + 0 x169 + 0 x170 + 0 x171
       + 0 x172 + 0 x173 + 0 x174 + 0 x175 + 0 x176 + 0 x177 + 0 x178 + 0 x179
       + 0 x180 + 0 x187 + 0 x193 + 0 x199 + 0 x205 + 0 x210 + 0 x211 + 0 x212
       + 0 x218 + 0 x224 + 0 x230 + 0 x235 + 0 x236 + x249 + 0 x250 + 0 x251
       + 0 x252 + 0 x253
Subject To
 c1:   x181 - x249 <= 0
 c2:   x182 - x249 <= 0
 c3:   x183 - x249 <= 0
 c4:   x184 - x249 <= 0
 c5:   x185 - x249 <= 0
 c6:   x186 - x249 <= 0
 c7:   x129 + x137  = 1
 c8:   x130 + x138  = 1
 c9:   x131 + x139  = 1
 c10:  x132 + x140  = 1
 c11:  x133 + x141  = 1
 c12:  x134 + x142  = 1
 c13:  x2 + x3 + x4 + x5 + x6 - x129  = 0
 c14:  x9 + x17 + x25 + x33 + x41 - x129  = 0
 c15:  x9 + x11 + x12 + x13 + x14 - x130  = 0
 c16:  x2 + x18 + x26 + x34 + x42 - x130  = 0
 c17:  x17 + x18 + x20 + x21 + x22 - x131  = 0
 c18:  x3 + x11 + x27 + x35 + x43 - x131  = 0
 c19:  x25 + x26 + x27 + x29 + x30 - x132  = 0
 c20:  x4 + x12 + x20 + x36 + x44 - x132  = 0
 c21:  x33 + x34 + x35 + x36 + x38 - x133  = 0
 c22:  x5 + x13 + x21 + x29 + x45 - x133  = 0
 c23:  x41 + x42 + x43 + x44 + x45 - x134  = 0
 c24:  x6 + x14 + x22 + x30 + x38 - x134  = 0
 c25:  x66 + x67 + x68 + x69 + x70 - x137  = 0
 c26:  x73 + x81 + x89 + x97 + x105 - x137  = 0
 c27:  x73 + x75 + x76 + x77 + x78 - x138  = 0
 c28:  x66 + x82 + x90 + x98 + x106 - x138  = 0
 c29:  x81 + x82 + x84 + x85 + x86 - x139  = 0
 c30:  x67 + x75 + x91 + x99 + x107 - x139  = 0
 c31:  x89 + x90 + x91 + x93 + x94 - x140  = 0
 c32:  x68 + x76 + x84 + x100 + x108 - x140  = 0
 c33:  x97 + x98 + x99 + x100 + x102 - x141  = 0
 c34:  x69 + x77 + x85 + x93 + x109 - x141  = 0
 c35:  x105 + x106 + x107 + x108 + x109 - x142  = 0
 c36:  x70 + x78 + x86 + x94 + x102 - x142  = 0
 c37:  x49 + x50 + x51 + x52 + x53 + x54 + x56  = 1
 c38:  x113 + x114 + x115 + x116 + x117 + x118 + x120  = 1
 c39:  x8 + x16 + x24 + x32 + x40 + x48 + x56  = 1
 c40:  x72 + x80 + x88 + x96 + x104 + x112 + x120  = 1
 c41:  - x2 - x3 - x4 - x5 - x6 - x7 - x8 + x9 + x17 + x25 + x33 + x41 + x49
       + x57  = 0
 c42:  x2 - x9 - x11 - x12 - x13 - x14 - x15 - x16 + x18 + x26 + x34 + x42
       + x50 + x58  = 0
 c43:  x3 + x11 - x17 - x18 - x20 - x21 - x22 - x23 - x24 + x27 + x35 + x43
       + x51 + x59  = 0
 c44:  x4 + x12 + x20 - x25 - x26 - x27 - x29 - x30 - x31 - x32 + x36 + x44
       + x52 + x60  = 0
 c45:  x5 + x13 + x21 + x29 - x33 - x34 - x35 - x36 - x38 - x39 - x40 + x45
       + x53 + x61  = 0
 c46:  x6 + x14 + x22 + x30 + x38 - x41 - x42 - x43 - x44 - x45 - x47 - x48
       + x54 + x62  = 0
 c47:  - x66 - x67 - x68 - x69 - x70 - x71 - x72 + x73 + x81 + x89 + x97 + x105
       + x113 + x121  = 0
 c48:  x66 - x73 - x75 - x76 - x77 - x78 - x79 - x80 + x82 + x90 + x98 + x106
       + x114 + x122  = 0
 c49:  x67 + x75 - x81 - x82 - x84 - x85 - x86 - x87 - x88 + x91 + x99 + x107
       + x115 + x123  = 0
 c50:  x68 + x76 + x84 - x89 - x90 - x91 - x93 - x94 - x95 - x96 + x100 + x108
       + x116 + x124  = 0
 c51:  x69 + x77 + x85 + x93 - x97 - x98 - x99 - x100 - x102 - x103 - x104
       + x109 + x117 + x125  = 0
 c52:  x70 + x78 + x86 + x94 + x102 - x105 - x106 - x107 - x108 - x109 - x111
       - x112 + x118 + x126  = 0
 c53:  - 100000 x130 - x158 + x182 >= -99999
 c54:  - 100000 x131 - x159 + x183 >= -99999
 c55:  - 100000 x132 - x160 + x184 >= -99999
 c56:  - 100000 x133 - x161 + x185 >= -99999
 c57:  - 100000 x134 - x162 + x186 >= -99999
 c58:  - 100000 x138 - x164 + x182 >= -99999
 c59:  - 100000 x139 - x165 + x183 >= -99999
 c60:  - 100000 x140 - x166 + x184 >= -99999
 c61:  - 100000 x141 - x167 + x185 >= -99999
 c62:  - 100000 x142 - x168 + x186 >= -99999
 c63:  - x145 + x157 >= 0
 c64:  - x146 + x158 >= 0
 c65:  - x147 + x159 >= 0
 c66:  - x148 + x160 >= 0
 c67:  - x149 + x161 >= 0
 c68:  - x150 + x162 >= 0
 c69:  - x151 + x163 >= 0
 c70:  - x152 + x164 >= 0
 c71:  - x153 + x165 >= 0
 c72:  - x154 + x166 >= 0
 c73:  - x155 + x167 >= 0
 c74:  - x156 + x168 >= 0
 c75:  - 100000 x129 + x157 - 100000 x237 - x243 >= -200000
 c76:  - 100000 x129 + x157 - 100000 x240 - x246 >= -200000
 c77:  - 100000 x137 + x163 - 100000 x237 - x243 >= -200000
 c78:  - 100000 x137 + x163 - 100000 x240 - x246 >= -200000
 c79:  - 100000 x130 + x158 - 100000 x237 - x243 >= -200000
 c80:  - 100000 x130 + x158 - 100000 x240 - x246 >= -200000
 c81:  - 100000 x138 + x164 - 100000 x237 - x243 >= -200000
 c82:  - 100000 x138 + x164 - 100000 x240 - x246 >= -200000
 c83:  - 100000 x131 + x159 - 100000 x238 - x244 >= -200000
 c84:  - 100000 x131 + x159 - 100000 x241 - x247 >= -200000
 c85:  - 100000 x139 + x165 - 100000 x238 - x244 >= -200000
 c86:  - 100000 x139 + x165 - 100000 x241 - x247 >= -200000
 c87:  - 100000 x132 + x160 - 100000 x238 - x244 >= -200000
 c88:  - 100000 x132 + x160 - 100000 x241 - x247 >= -200000
 c89:  - 100000 x140 + x166 - 100000 x238 - x244 >= -200000
 c90:  - 100000 x140 + x166 - 100000 x241 - x247 >= -200000
 c91:  - 100000 x133 + x161 - 100000 x238 - x244 >= -200000
 c92:  - 100000 x133 + x161 - 100000 x241 - x247 >= -200000
 c93:  - 100000 x141 + x167 - 100000 x238 - x244 >= -200000
 c94:  - 100000 x141 + x167 - 100000 x241 - x247 >= -200000
 c95:  - 100000 x134 + x162 - 100000 x239 - x245 >= -200000
 c96:  - 100000 x134 + x162 - 100000 x242 - x248 >= -200000
 c97:  - 100000 x142 + x168 - 100000 x239 - x245 >= -200000
 c98:  - 100000 x142 + x168 - 100000 x242 - x248 >= -200000
 c99:  - 100000 x2 + x146 - x181 >= -99992
 c100: - 100000 x3 + x147 - x181 >= -99991
 c101: - 100000 x4 + x148 - x181 >= -99994.5
 c102: - 100000 x5 + x149 - x181 >= -99993.5
 c103: - 100000 x6 + x150 - x181 >= -99989.5
 c104: - 100000 x9 + x145 - x182 >= -99992
 c105: - 100000 x11 + x147 - x182 >= -99991.5
 c106: - 100000 x12 + x148 - x182 >= -99995
 c107: - 100000 x13 + x149 - x182 >= -99994
 c108: - 100000 x14 + x150 - x182 >= -99990
 c109: - 100000 x17 + x145 - x183 >= -99991
 c110: - 100000 x18 + x146 - x183 >= -99991.5
 c111: - 100000 x20 + x148 - x183 >= -99994
 c112: - 100000 x21 + x149 - x183 >= -99993
 c113: - 100000 x22 + x150 - x183 >= -99989
 c114: - 100000 x25 + x145 - x184 >= -99994.5
 c115: - 100000 x26 + x146 - x184 >= -99995
 c116: - 100000 x27 + x147 - x184 >= -99994
 c117: - 100000 x29 + x149 - x184 >= -99996.5
 c118: - 100000 x30 + x150 - x184 >= -99992.5
 c119: - 100000 x33 + x145 - x185 >= -99993.5
 c120: - 100000 x34 + x146 - x185 >= -99994
 c121: - 100000 x35 + x147 - x185 >= -99993
 c122: - 100000 x36 + x148 - x185 >= -99996.5
 c123: - 100000 x38 + x150 - x185 >= -99991.5
 c124: - 100000 x41 + x145 - x186 >= -99989.5
 c125: - 100000 x42 + x146 - x186 >= -99990
 c126: - 100000 x43 + x147 - x186 >= -99989
 c127: - 100000 x44 + x148 - x186 >= -99992.5
 c128: - 100000 x45 + x149 - x186 >= -99991.5
 c129: - 100000 x66 + x152 - x181 >= -99992
 c130: - 100000 x67 + x153 - x181 >= -99991
 c131: - 100000 x68 + x154 - x181 >= -99994.5
 c132: - 100000 x69 + x155 - x181 >= -99993.5
 c133: - 100000 x70 + x156 - x181 >= -99989.5
 c134: - 100000 x73 + x151 - x182 >= -99992
 c135: - 100000 x75 + x153 - x182 >= -99991.5
 c136: - 100000 x76 + x154 - x182 >= -99995
 c137: - 100000 x77 + x155 - x182 >= -99994
 c138: - 100000 x78 + x156 - x182 >= -99990
 c139: - 100000 x81 + x151 - x183 >= -99991
 c140: - 100000 x82 + x152 - x183 >= -99991.5
 c141: - 100000 x84 + x154 - x183 >= -99994
 c142: - 100000 x85 + x155 - x183 >= -99993
 c143: - 100000 x86 + x156 - x183 >= -99989
 c144: - 100000 x89 + x151 - x184 >= -99994.5
 c145: - 100000 x90 + x152 - x184 >= -99995
 c146: - 100000 x91 + x153 - x184 >= -99994
 c147: - 100000 x93 + x155 - x184 >= -99996.5
 c148: - 100000 x94 + x156 - x184 >= -99992.5
 c149: - 100000 x97 + x151 - x185 >= -99993.5
 c150: - 100000 x98 + x152 - x185 >= -99994
 c151: - 100000 x99 + x153 - x185 >= -99993
 c152: - 100000 x100 + x154 - x185 >= -99996.5
 c153: - 100000 x102 + x156 - x185 >= -99991.5
 c154: - 100000 x105 + x151 - x186 >= -99989.5
 c155: - 100000 x106 + x152 - x186 >= -99990
 c156: - 100000 x107 + x153 - x186 >= -99989
 c157: - 100000 x108 + x154 - x186 >= -99992.5
 c158: - 100000 x109 + x155 - x186 >= -99991.5
 c159: - 4 x49 + x145 >= 0
 c160: - 3.5 x50 + x146 >= 0
 c161: - 4.5 x51 + x147 >= 0
 c162: - x52 + x148 >= 0
 c163: - 2 x53 + x149 >= 0
 c164: - 6 x54 + x150 >= 0
 c165: - 4 x113 + x151 >= 0
 c166: - 3.5 x114 + x152 >= 0
 c167: - 4.5 x115 + x153 >= 0
 c168: - x116 + x154 >= 0
 c169: - 2 x117 + x155 >= 0
 c170: - 6 x118 + x156 >= 0
 c171: x237 + x240  = 1
 c172: x238 + x241  = 1
 c173: x239 + x242  = 1
 c174: x188 + x189 + x191 - x237  = 0
 c175: x192 + x197 + x202 - x237  = 0
 c176: x192 + x194 + x196 - x238  = 0
 c177: x188 + x198 + x203 - x238  = 0
 c178: x197 + x198 + x201 - x239  = 0
 c179: x189 + x194 + x204 - x239  = 0
 c180: x213 + x214 + x216 - x240  = 0
 c181: x217 + x222 + x227 - x240  = 0
 c182: x217 + x219 + x221 - x241  = 0
 c183: x213 + x223 + x228 - x241  = 0
 c184: x222 + x223 + x226 - x242  = 0
 c185: x214 + x219 + x229 - x242  = 0
 c186: - x188 - x189 - x190 - x191 + x192 + x197 + x202 + x207  = 0
 c187: x188 - x192 - x194 - x195 - x196 + x198 + x203 + x208  = 0
 c188: x189 + x194 - x197 - x198 - x200 - x201 + x204 + x209  = 0
 c189: - x213 - x214 - x215 - x216 + x217 + x222 + x227 + x232  = 0
 c190: x213 - x217 - x219 - x220 - x221 + x223 + x228 + x233  = 0
 c191: x214 + x219 - x222 - x223 - x225 - x226 + x229 + x234  = 0
 c192: x202 + x203 + x204 + x206  = 1
 c193: x227 + x228 + x229 + x231  = 1
 c194: x191 + x196 + x201 + x206  = 1
 c195: x216 + x221 + x226 + x231  = 1
 c196: - 100000 x188 - x243 + x244 >= -99994
 c197: - 100000 x189 - x243 + x245 >= -99990
 c198: - 100000 x192 + x243 - x244 >= -99993
 c199: - 100000 x194 - x244 + x245 >= -99993
 c200: - 100000 x197 + x243 - x245 >= -99991
 c201: - 100000 x198 + x244 - x245 >= -99995
 c202: - 100000 x213 - x246 + x247 >= -99994
 c203: - 100000 x214 - x246 + x248 >= -99990
 c204: - 100000 x217 + x246 - x247 >= -99993
 c205: - 100000 x219 - x247 + x248 >= -99993
 c206: - 100000 x222 + x246 - x248 >= -99991
 c207: - 100000 x223 + x247 - x248 >= -99995
 c208: x243 >= 0
 c209: x244 >= 0
 c210: x245 >= 0
 c211: x246 >= 0
 c212: x247 >= 0
 c213: x248 >= 0
 i1: x250 = 1 <-> x237 + x238 + x239 => 1
 i2: x251 = 1 <-> x188 + x189 + x192 + x194 + x197 + x198 - x237 - x238 - x239
      = -1
 i3: x250 = 1 -> x251  = 1
 i4: x252 = 1 <-> x240 + x241 + x242 => 1
 i5: x253 = 1 <-> x213 + x214 + x217 + x219 + x222 + x223 - x240 - x241 - x242
      = -1
 i6: x252 = 1 -> x253  = 1
Bounds
 0 <= x1 <= 1
 0 <= x2 <= 1
 0 <= x3 <= 1
 0 <= x4 <= 1
 0 <= x5 <= 1
 0 <= x6 <= 1
 0 <= x7 <= 1
 0 <= x8 <= 1
 0 <= x9 <= 1
 0 <= x10 <= 1
 0 <= x11 <= 1
 0 <= x12 <= 1
 0 <= x13 <= 1
 0 <= x14 <= 1
 0 <= x15 <= 1
 0 <= x16 <= 1
 0 <= x17 <= 1
 0 <= x18 <= 1
 0 <= x19 <= 1
 0 <= x20 <= 1
 0 <= x21 <= 1
 0 <= x22 <= 1
 0 <= x23 <= 1
 0 <= x24 <= 1
 0 <= x25 <= 1
 0 <= x26 <= 1
 0 <= x27 <= 1
 0 <= x28 <= 1
 0 <= x29 <= 1
 0 <= x30 <= 1
 0 <= x31 <= 1
 0 <= x32 <= 1
 0 <= x33 <= 1
 0 <= x34 <= 1
 0 <= x35 <= 1
 0 <= x36 <= 1
 0 <= x37 <= 1
 0 <= x38 <= 1
 0 <= x39 <= 1
 0 <= x40 <= 1
 0 <= x41 <= 1
 0 <= x42 <= 1
 0 <= x43 <= 1
 0 <= x44 <= 1
 0 <= x45 <= 1
 0 <= x46 <= 1
 0 <= x47 <= 1
 0 <= x48 <= 1
 0 <= x49 <= 1
 0 <= x50 <= 1
 0 <= x51 <= 1
 0 <= x52 <= 1
 0 <= x53 <= 1
 0 <= x54 <= 1
 0 <= x55 <= 1
 0 <= x56 <= 1
 0 <= x57 <= 1
 0 <= x58 <= 1
 0 <= x59 <= 1
 0 <= x60 <= 1
 0 <= x61 <= 1
 0 <= x62 <= 1
 0 <= x63 <= 1
 0 <= x64 <= 1
 0 <= x65 <= 1
 0 <= x66 <= 1
 0 <= x67 <= 1
 0 <= x68 <= 1
 0 <= x69 <= 1
 0 <= x70 <= 1
 0 <= x71 <= 1
 0 <= x72 <= 1
 0 <= x73 <= 1
 0 <= x74 <= 1
 0 <= x75 <= 1
 0 <= x76 <= 1
 0 <= x77 <= 1
 0 <= x78 <= 1
 0 <= x79 <= 1
 0 <= x80 <= 1
 0 <= x81 <= 1
 0 <= x82 <= 1
 0 <= x83 <= 1
 0 <= x84 <= 1
 0 <= x85 <= 1
 0 <= x86 <= 1
 0 <= x87 <= 1
 0 <= x88 <= 1
 0 <= x89 <= 1
 0 <= x90 <= 1
 0 <= x91 <= 1
 0 <= x92 <= 1
 0 <= x93 <= 1
 0 <= x94 <= 1
 0 <= x95 <= 1
 0 <= x96 <= 1
 0 <= x97 <= 1
 0 <= x98 <= 1
 0 <= x99 <= 1
 0 <= x100 <= 1
 0 <= x101 <= 1
 0 <= x102 <= 1
 0 <= x103 <= 1
 0 <= x104 <= 1
 0 <= x105 <= 1
 0 <= x106 <= 1
 0 <= x107 <= 1
 0 <= x108 <= 1
 0 <= x109 <= 1
 0 <= x110 <= 1
 0 <= x111 <= 1
 0 <= x112 <= 1
 0 <= x113 <= 1
 0 <= x114 <= 1
 0 <= x115 <= 1
 0 <= x116 <= 1
 0 <= x117 <= 1
 0 <= x118 <= 1
 0 <= x119 <= 1
 0 <= x120 <= 1
 0 <= x121 <= 1
 0 <= x122 <= 1
 0 <= x123 <= 1
 0 <= x124 <= 1
 0 <= x125 <= 1
 0 <= x126 <= 1
 0 <= x127 <= 1
 0 <= x128 <= 1
 0 <= x129 <= 1
 0 <= x130 <= 1
 0 <= x131 <= 1
 0 <= x132 <= 1
 0 <= x133 <= 1
 0 <= x134 <= 1
 0 <= x135 <= 1
 0 <= x136 <= 1
 0 <= x137 <= 1
 0 <= x138 <= 1
 0 <= x139 <= 1
 0 <= x140 <= 1
 0 <= x141 <= 1
 0 <= x142 <= 1
 0 <= x143 <= 1
 0 <= x144 <= 1
 0 <= x187 <= 1
 0 <= x188 <= 1
 0 <= x189 <= 1
 0 <= x190 <= 1
 0 <= x191 <= 1
 0 <= x192 <= 1
 0 <= x193 <= 1
 0 <= x194 <= 1
 0 <= x195 <= 1
 0 <= x196 <= 1
 0 <= x197 <= 1
 0 <= x198 <= 1
 0 <= x199 <= 1
 0 <= x200 <= 1
 0 <= x201 <= 1
 0 <= x202 <= 1
 0 <= x203 <= 1
 0 <= x204 <= 1
 0 <= x205 <= 1
 0 <= x206 <= 1
 0 <= x207 <= 1
 0 <= x208 <= 1
 0 <= x209 <= 1
 0 <= x210 <= 1
 0 <= x211 <= 1
 0 <= x212 <= 1
 0 <= x213 <= 1
 0 <= x214 <= 1
 0 <= x215 <= 1
 0 <= x216 <= 1
 0 <= x217 <= 1
 0 <= x218 <= 1
 0 <= x219 <= 1
 0 <= x220 <= 1
 0 <= x221 <= 1
 0 <= x222 <= 1
 0 <= x223 <= 1
 0 <= x224 <= 1
 0 <= x225 <= 1
 0 <= x226 <= 1
 0 <= x227 <= 1
 0 <= x228 <= 1
 0 <= x229 <= 1
 0 <= x230 <= 1
 0 <= x231 <= 1
 0 <= x232 <= 1
 0 <= x233 <= 1
 0 <= x234 <= 1
 0 <= x235 <= 1
 0 <= x236 <= 1
 0 <= x237 <= 1
 0 <= x238 <= 1
 0 <= x239 <= 1
 0 <= x240 <= 1
 0 <= x241 <= 1
 0 <= x242 <= 1
 0 <= x250 <= 1
 0 <= x251 <= 1
 0 <= x252 <= 1
 0 <= x253 <= 1
Binaries
 x1  x2  x3  x4  x5  x6  x7  x8  x9  x10  x11  x12  x13  x14  x15  x16  x17 
 x18  x19  x20  x21  x22  x23  x24  x25  x26  x27  x28  x29  x30  x31  x32 
 x33  x34  x35  x36  x37  x38  x39  x40  x41  x42  x43  x44  x45  x46  x47 
 x48  x49  x50  x51  x52  x53  x54  x55  x56  x57  x58  x59  x60  x61  x62 
 x63  x64  x65  x66  x67  x68  x69  x70  x71  x72  x73  x74  x75  x76  x77 
 x78  x79  x80  x81  x82  x83  x84  x85  x86  x87  x88  x89  x90  x91  x92 
 x93  x94  x95  x96  x97  x98  x99  x100  x101  x102  x103  x104  x105  x106 
 x107  x108  x109  x110  x111  x112  x113  x114  x115  x116  x117  x118  x119 
 x120  x121  x122  x123  x124  x125  x126  x127  x128  x129  x130  x131  x132 
 x133  x134  x135  x136  x137  x138  x139  x140  x141  x142  x143  x144  x187 
 x188  x189  x190  x191  x192  x193  x194  x195  x196  x197  x198  x199  x200 
 x201  x202  x203  x204  x205  x206  x207  x208  x209  x210  x211  x212  x213 
 x214  x215  x216  x217  x218  x219  x220  x221  x222  x223  x224  x225  x226 
 x227  x228  x229  x230  x231  x232  x233  x234  x235  x236  x237  x238  x239 
 x240  x241  x242  x250  x251  x252  x253 
End
